NAME          DCAP_3_4_2_500_SS168
ROWS
 N  OBJ
 L  CON1
 L  CON2
 L  CON3
 L  CON4
 L  CON5
 L  CON6
 L  CON7
 L  CON8
 L  CON9
 L  CON10
 L  CON11
 L  CON12
 E  CON13
 E  CON14
 E  CON15
 E  CON16
 E  CON17
 E  CON18
 E  CON19
 E  CON20
COLUMNS
    x[1,1]    OBJ       6.180167      CON1      1.000000    
    x[1,1]    CON7      -1.000000     CON8      -1.000000   
    x[1,2]    OBJ       5.039546      CON2      1.000000    
    x[1,2]    CON8      -1.000000   
    x[2,1]    OBJ       6.732585      CON3      1.000000    
    x[2,1]    CON9      -1.000000     CON10     -1.000000   
    x[2,2]    OBJ       7.443064      CON4      1.000000    
    x[2,2]    CON10     -1.000000   
    x[3,1]    OBJ       6.563535      CON5      1.000000    
    x[3,1]    CON11     -1.000000     CON12     -1.000000   
    x[3,2]    OBJ       6.054841      CON6      1.000000    
    x[3,2]    CON12     -1.000000   
    MARKER    'MARKER'                'INTORG'
    u[1,1]    OBJ       48.076654     CON1      -1.000000   
    u[1,2]    OBJ       49.466655     CON2      -1.000000   
    u[2,1]    OBJ       49.996186     CON3      -1.000000   
    u[2,2]    OBJ       32.230043     CON4      -1.000000   
    u[3,1]    OBJ       20.066487     CON5      -1.000000   
    u[3,2]    OBJ       27.484319     CON6      -1.000000   
    y[1,1,1]  OBJ       6.805726      CON7      1.438964    
    y[1,1,1]  CON13     1.000000    
    y[1,1,2]  OBJ       9.986754      CON8      1.383400    
    y[1,1,2]  CON14     1.000000    
    y[1,2,1]  OBJ       5.198858      CON7      0.836091    
    y[1,2,1]  CON15     1.000000    
    y[1,2,2]  OBJ       6.197357      CON8      0.966890    
    y[1,2,2]  CON16     1.000000    
    y[1,3,1]  OBJ       7.901132      CON7      0.508243    
    y[1,3,1]  CON17     1.000000    
    y[1,3,2]  OBJ       5.032547      CON8      0.918212    
    y[1,3,2]  CON18     1.000000    
    y[1,4,1]  OBJ       6.893377      CON7      0.649151    
    y[1,4,1]  CON19     1.000000    
    y[1,4,2]  OBJ       6.448940      CON8      0.761610    
    y[1,4,2]  CON20     1.000000    
    y[2,1,1]  OBJ       5.367430      CON9      1.438964    
    y[2,1,1]  CON13     1.000000    
    y[2,1,2]  OBJ       5.685553      CON10     1.383400    
    y[2,1,2]  CON14     1.000000    
    y[2,2,1]  OBJ       6.564477      CON9      0.836091    
    y[2,2,1]  CON15     1.000000    
    y[2,2,2]  OBJ       7.986813      CON10     0.966890    
    y[2,2,2]  CON16     1.000000    
    y[2,3,1]  OBJ       5.711526      CON9      0.508243    
    y[2,3,1]  CON17     1.000000    
    y[2,3,2]  OBJ       8.306075      CON10     0.918212    
    y[2,3,2]  CON18     1.000000    
    y[2,4,1]  OBJ       7.958517      CON9      0.649151    
    y[2,4,1]  CON19     1.000000    
    y[2,4,2]  OBJ       9.600461      CON10     0.761610    
    y[2,4,2]  CON20     1.000000    
    y[3,1,1]  OBJ       8.955384      CON11     1.438964    
    y[3,1,1]  CON13     1.000000    
    y[3,1,2]  OBJ       7.905389      CON12     1.383400    
    y[3,1,2]  CON14     1.000000    
    y[3,2,1]  OBJ       5.401827      CON11     0.836091    
    y[3,2,1]  CON15     1.000000    
    y[3,2,2]  OBJ       8.076561      CON12     0.966890    
    y[3,2,2]  CON16     1.000000    
    y[3,3,1]  OBJ       8.217806      CON11     0.508243    
    y[3,3,1]  CON17     1.000000    
    y[3,3,2]  OBJ       7.648004      CON12     0.918212    
    y[3,3,2]  CON18     1.000000    
    y[3,4,1]  OBJ       7.880590      CON11     0.649151    
    y[3,4,1]  CON19     1.000000    
    y[3,4,2]  OBJ       8.149370      CON12     0.761610    
    y[3,4,2]  CON20     1.000000    
    z[1,1]    OBJ       872.198269    CON13     1.000000    
    z[1,2]    OBJ       741.630582    CON14     1.000000    
    z[2,1]    OBJ       711.354229    CON15     1.000000    
    z[2,2]    OBJ       607.350580    CON16     1.000000    
    z[3,1]    OBJ       603.876476    CON17     1.000000    
    z[3,2]    OBJ       725.613632    CON18     1.000000    
    z[4,1]    OBJ       632.440628    CON19     1.000000    
    z[4,2]    OBJ       910.377699    CON20     1.000000    
    MARKER    'MARKER'                 'INTEND'
RHS
    RHS       CON1      -0.000000     CON2      -0.000000   
    RHS       CON3      -0.000000     CON4      -0.000000   
    RHS       CON5      -0.000000     CON6      -0.000000   
    RHS       CON7      -0.000000     CON8      -0.000000   
    RHS       CON9      -0.000000     CON10     -0.000000   
    RHS       CON11     -0.000000     CON12     -0.000000   
    RHS       CON13     1.000000      CON14     1.000000    
    RHS       CON15     1.000000      CON16     1.000000    
    RHS       CON17     1.000000      CON18     1.000000    
    RHS       CON19     1.000000      CON20     1.000000    
BOUNDS
 BV BOUND     u[1,1]  
 BV BOUND     u[1,2]  
 BV BOUND     u[2,1]  
 BV BOUND     u[2,2]  
 BV BOUND     u[3,1]  
 BV BOUND     u[3,2]  
 BV BOUND     y[1,1,1]
 BV BOUND     y[1,1,2]
 BV BOUND     y[1,2,1]
 BV BOUND     y[1,2,2]
 BV BOUND     y[1,3,1]
 BV BOUND     y[1,3,2]
 BV BOUND     y[1,4,1]
 BV BOUND     y[1,4,2]
 BV BOUND     y[2,1,1]
 BV BOUND     y[2,1,2]
 BV BOUND     y[2,2,1]
 BV BOUND     y[2,2,2]
 BV BOUND     y[2,3,1]
 BV BOUND     y[2,3,2]
 BV BOUND     y[2,4,1]
 BV BOUND     y[2,4,2]
 BV BOUND     y[3,1,1]
 BV BOUND     y[3,1,2]
 BV BOUND     y[3,2,1]
 BV BOUND     y[3,2,2]
 BV BOUND     y[3,3,1]
 BV BOUND     y[3,3,2]
 BV BOUND     y[3,4,1]
 BV BOUND     y[3,4,2]
 BV BOUND     z[1,1]  
 BV BOUND     z[1,2]  
 BV BOUND     z[2,1]  
 BV BOUND     z[2,2]  
 BV BOUND     z[3,1]  
 BV BOUND     z[3,2]  
 BV BOUND     z[4,1]  
 BV BOUND     z[4,2]  
ENDATA
